************************************************************************
file with basedata            : n/a
initial value random generator: n/a
************************************************************************
projects                      :  1
jobs (incl. supersource/sink ):  122
horizon                       :  688
RESOURCES
  - renewable                 :  4   R
  - nonrenewable              :  0   N
  - doubly constrained        :  0   D
************************************************************************
PROJECT INFORMATION:
pronr.  #jobs rel.date duedate tardcost  MPM-Time
    1    120      0       91       42       91
************************************************************************
PRECEDENCE RELATIONS:
jobnr.    #modes  #successors   successors
   1        1          3           2   3   4
   2        1          3           5   6  11
   3        1          3           8  66 101
   4        1          3          10  16  23
   5        1          3          29  40  60
   6        1          3           7  12  14
   7        1          2          36  57
   8        1          3           9  15  34
   9        1          3          26  28  60
  10        1          2          65 105
  11        1          3          13  32  61
  12        1          1          31
  13        1          3          18  20  59
  14        1          3          24  25  98
  15        1          2          19  27
  16        1          3          17  39  95
  17        1          1          69
  18        1          2          21  35
  19        1          1          33
  20        1          2          22  24
  21        1          1          89
  22        1          2          45  56
  23        1          2          42  73
  24        1          2          38  93
  25        1          1          64
  26        1          2          43  58
  27        1          2         108 120
  28        1          2          30  84
  29        1          3          48  66  78
  30        1          3          37  44  55
  31        1          1          47
  32        1          3          54  72  76
  33        1          1          41
  34        1          1          88
  35        1          3          62  80  86
  36        1          2          50 105
  37        1          2          81  90
  38        1          2          52  55
  39        1          2          49  77
  40        1          1          79
  41        1          3          46  82 102
  42        1          3          49  51 109
  43        1          3          48  51  53
  44        1          1          62
  45        1          3          47  74 117
  46        1          1         105
  47        1          3          73  99 107
  48        1          2          82 110
  49        1          1          63
  50        1          2          68  79
  51        1          2          87 121
  52        1          1          96
  53        1          2          89 115
  54        1          1          88
  55        1          1          70
  56        1          2          71  98
  57        1          2          67 103
  58        1          3          69  75  85
  59        1          2          75  79
  60        1          1          89
  61        1          1          95
  62        1          2          63  97
  63        1          3          74  83 110
  64        1          3          68  86 119
  65        1          2          66 100
  66        1          1         117
  67        1          2          84  92
  68        1          2          93 112
  69        1          2          77  93
  70        1          3          73  83  90
  71        1          1          80
  72        1          1          75
  73        1          1         114
  74        1          1          90
  75        1          2          77  96
  76        1          1          95
  77        1          1          87
  78        1          2          80  84
  79        1          1          86
  80        1          3          81  82  85
  81        1          1          97
  82        1          3          91 104 107
  83        1          2          88 104
  84        1          3          91  94 102
  85        1          1         103
  86        1          2          97 106
  87        1          1          92
  88        1          1         100
  89        1          1         119
  90        1          3          94  96  99
  91        1          2         106 113
  92        1          2          94 104
  93        1          1         116
  94        1          1         111
  95        1          1         118
  96        1          2         107 112
  97        1          1         100
  98        1          1         101
  99        1          1         102
 100        1          3         112 116 120
 101        1          2         103 109
 102        1          1         116
 103        1          2         110 118
 104        1          2         106 111
 105        1          2         108 109
 106        1          1         117
 107        1          1         108
 108        1          1         114
 109        1          1         111
 110        1          2         113 115
 111        1          1         113
 112        1          1         114
 113        1          1         119
 114        1          1         115
 115        1          1         121
 116        1          1         121
 117        1          1         118
 118        1          1         120
 119        1          1         122
 120        1          1         122
 121        1          1         122
 122        1          0        
************************************************************************
REQUESTS/DURATIONS:
jobnr. mode duration  R 1  R 2  R 3  R 4
------------------------------------------------------------------------
  1      1     0    
  2      1     4       3   3   2   3
                       6   6   3   6
                       1   1   1   1
                       7   7   4   7
  3      1     9       8   8   8   8   8   8   8   4   8
                       5   5   5   5   5   5   5   3   5
                       2   2   2   2   2   2   2   1   2
                       6   6   6   6   6   6   6   3   6
  4      1     8       6   6   6   6   6   3   6   6
                       9   9   9   9   9   5   9   9
                       5   5   5   5   5   3   5   5
                       8   8   8   8   8   4   8   8
  5      1     6       2   2   1   2   2   2
                      10  10   5  10  10  10
                       7   7   4   7   7   7
                      10  10   5  10  10  10
  6      1     1       1
                       5
                       5
                       5
  7      1    10       9   9   9   5   9   5   9   9   9   9
                       6   6   6   3   6   3   6   6   6   6
                       1   1   1   1   1   1   1   1   1   1
                       5   5   5   3   5   3   5   5   5   5
  8      1     2       1   1
                       5   5
                       3   3
                       2   2
  9      1     6       2   2   2   2   2   2
                       8   8   8   8   8   8
                       1   1   1   1   1   1
                       6   6   6   6   6   6
 10      1     5       2   2   2   1   2
                       4   4   4   2   4
                      10  10  10   5  10
                       4   4   4   2   4
 11      1     3       4   2   4
                       8   4   8
                       8   4   8
                       7   4   7
 12      1     5       5   9   9   9   9
                       2   4   4   4   4
                       2   4   4   4   4
                       5  10  10  10  10
 13      1     1       6
                       2
                       8
                       9
 14      1     3       5   9   9
                       3   6   6
                       5   9   9
                       5   9   9
 15      1     7       7   7   7   7   4   4   7
                       8   8   8   8   4   4   8
                       5   5   5   5   3   3   5
                       5   5   5   5   3   3   5
 16      1     2       5  10
                       2   3
                       3   5
                       3   6
 17      1     2       4   2
                       7   4
                       2   1
                       7   4
 18      1     7       6   6   6   3   6   6   6
                      10  10  10   5  10  10  10
                       4   4   4   2   4   4   4
                       5   5   5   3   5   5   5
 19      1     9       2   3   3   3   3   2   2   3   3
                       3   5   5   5   5   3   3   5   5
                       5  10  10  10  10   5   5  10  10
                       3   6   6   6   6   3   3   6   6
 20      1     1       6
                       7
                       7
                       9
 21      1    10       2   2   2   1   1   1   1   2   2   2
                       5   5   5   3   3   3   3   5   5   5
                       8   8   8   4   4   4   4   8   8   8
                       5   5   5   3   3   3   3   5   5   5
 22      1     6       2   4   2   4   4   2
                       1   2   1   2   2   1
                       3   5   3   5   5   3
                       4   7   4   7   7   4
 23      1     9       5   3   5   5   5   5   5   5   5
                       5   3   5   5   5   5   5   5   5
                       5   3   5   5   5   5   5   5   5
                       6   3   6   6   6   6   6   6   6
 24      1     7       1   1   1   1   1   1   1
                       8   8   8   8   8   8   8
                       4   4   4   4   4   4   4
                       2   2   2   2   2   2   2
 25      1     9       2   3   3   3   3   3   3   2   3
                       2   4   4   4   4   4   4   2   4
                       2   4   4   4   4   4   4   2   4
                       3   5   5   5   5   5   5   3   5
 26      1     7       5   5   3   5   3   5   3
                       4   4   2   4   2   4   2
                      10  10   5  10   5  10   5
                       2   2   1   2   1   2   1
 27      1     1       3
                       1
                       9
                       2
 28      1     9       6   6   6   6   6   3   3   6   6
                       6   6   6   6   6   3   3   6   6
                       4   4   4   4   4   2   2   4   4
                       8   8   8   8   8   4   4   8   8
 29      1     4       1   1   1   1
                       2   2   2   2
                       4   4   4   4
                       8   8   8   8
 30      1     3       3   3   3
                       2   2   2
                       9   9   9
                      10  10  10
 31      1     1       7
                      10
                       8
                       3
 32      1     3       1   1   1
                       4   4   2
                      10  10   5
                       9   9   5
 33      1     3       5   5   5
                       2   2   2
                       8   8   8
                       9   9   9
 34      1     4      10  10  10  10
                       3   3   3   3
                       1   1   1   1
                      10  10  10  10
 35      1     5       3   5   5   3   5
                       5  10  10   5  10
                       2   3   3   2   3
                       1   1   1   1   1
 36      1     1       6
                       4
                      10
                      10
 37      1     3       6   6   6
                      10  10  10
                       2   2   2
                       2   2   2
 38      1     5       5   5   5   5   5
                       9   9   9   9   9
                       5   5   5   5   5
                       3   3   3   3   3
 39      1    10      10  10  10  10   5  10   5  10   5  10
                       3   3   3   3   2   3   2   3   2   3
                       7   7   7   7   4   7   4   7   4   7
                       8   8   8   8   4   8   4   8   4   8
 40      1     9       4   2   2   2   4   4   4   4   4
                       5   3   3   3   5   5   5   5   5
                       9   5   5   5   9   9   9   9   9
                       8   4   4   4   8   8   8   8   8
 41      1    10      10  10  10  10  10  10  10   5  10  10
                       6   6   6   6   6   6   6   3   6   6
                       4   4   4   4   4   4   4   2   4   4
                       9   9   9   9   9   9   9   5   9   9
 42      1    10       3   6   6   3   6   6   6   3   3   6
                       4   8   8   4   8   8   8   4   4   8
                       5   9   9   5   9   9   9   5   5   9
                       4   8   8   4   8   8   8   4   4   8
 43      1     8       8   8   8   4   8   8   8   8
                       9   9   9   5   9   9   9   9
                       9   9   9   5   9   9   9   9
                       3   3   3   2   3   3   3   3
 44      1     2       9   5
                       9   5
                       7   4
                       3   2
 45      1     8       9   9   9   9   9   5   9   5
                       2   2   2   2   2   1   2   1
                       9   9   9   9   9   5   9   5
                       3   3   3   3   3   2   3   2
 46      1     4       6   6   6   6
                       8   8   8   8
                       6   6   6   6
                       5   5   5   5
 47      1     4       1   1   1   1
                       3   3   3   3
                      10  10  10  10
                       6   6   6   6
 48      1     6       5   9   9   9   9   5
                       4   7   7   7   7   4
                       2   3   3   3   3   2
                       3   5   5   5   5   3
 49      1    10       6   6   6   6   6   6   6   6   6   6
                       3   3   3   3   3   3   3   3   3   3
                       5   5   5   5   5   5   5   5   5   5
                      10  10  10  10  10  10  10  10  10  10
 50      1     8       9   5   9   9   5   9   9   9
                       8   4   8   8   4   8   8   8
                       1   1   1   1   1   1   1   1
                      10   5  10  10   5  10  10  10
 51      1     8       5  10  10  10  10  10  10  10
                       3   6   6   6   6   6   6   6
                       1   2   2   2   2   2   2   2
                       2   4   4   4   4   4   4   4
 52      1     9       3   2   3   3   2   3   2   3   3
                       6   3   6   6   3   6   3   6   6
                       4   2   4   4   2   4   2   4   4
                       2   1   2   2   1   2   1   2   2
 53      1     9       2   2   2   2   2   2   1   2   1
                       3   3   3   3   3   3   2   3   2
                       4   4   4   4   4   4   2   4   2
                       2   2   2   2   2   2   1   2   1
 54      1     5       4   4   2   2   4
                       1   1   1   1   1
                       5   5   3   3   5
                       9   9   5   5   9
 55      1     6       4   2   4   4   4   4
                       5   3   5   5   5   5
                       8   4   8   8   8   8
                       3   2   3   3   3   3
 56      1     3       5   5   5
                       1   1   1
                       6   6   6
                       5   5   5
 57      1     7       5   5   5   5   5   5   3
                       3   3   3   3   3   3   2
                       5   5   5   5   5   5   3
                       9   9   9   9   9   9   5
 58      1     4       1   1   1   1
                       9   9   9   9
                       6   6   6   6
                       5   5   5   5
 59      1     9       9   5   9   9   9   9   9   9   9
                       2   1   2   2   2   2   2   2   2
                       7   4   7   7   7   7   7   7   7
                       8   4   8   8   8   8   8   8   8
 60      1     6       9   9   9   9   9   9
                       2   2   2   2   2   2
                       3   3   3   3   3   3
                       8   8   8   8   8   8
 61      1     8       6   3   3   6   6   6   6   6
                       1   1   1   1   1   1   1   1
                       1   1   1   1   1   1   1   1
                       7   4   4   7   7   7   7   7
 62      1    10       4   4   4   2   4   4   2   4   4   4
                       1   1   1   1   1   1   1   1   1   1
                       8   8   8   4   8   8   4   8   8   8
                       4   4   4   2   4   4   2   4   4   4
 63      1     6       1   1   1   1   1   1
                       6   3   6   6   6   3
                       9   5   9   9   9   5
                       7   4   7   7   7   4
 64      1    10       3   3   3   3   3   2   3   3   3   2
                       3   3   3   3   3   2   3   3   3   2
                       3   3   3   3   3   2   3   3   3   2
                       1   1   1   1   1   1   1   1   1   1
 65      1     3       5   5   3
                      10  10   5
                       3   3   2
                       9   9   5
 66      1     5       2   1   2   2   2
                       3   2   3   3   3
                       5   3   5   5   5
                       1   1   1   1   1
 67      1     7       1   1   1   1   1   1   1
                       8   8   4   8   4   8   8
                       2   2   1   2   1   2   2
                       8   8   4   8   4   8   8
 68      1     1       3
                       6
                       6
                       9
 69      1     8       3   3   3   3   2   3   3   3
                       3   3   3   3   2   3   3   3
                      10  10  10  10   5  10  10  10
                       4   4   4   4   2   4   4   4
 70      1     4       4   4   2   4
                       2   2   1   2
                       1   1   1   1
                       1   1   1   1
 71      1     2       2   2
                       3   3
                       5   5
                       6   6
 72      1     1       4
                       1
                       5
                       3
 73      1     1       6
                       4
                       2
                       2
 74      1     7       2   2   2   1   2   2   2
                       6   6   6   3   6   6   6
                       7   7   7   4   7   7   7
                       7   7   7   4   7   7   7
 75      1     9      10  10  10   5  10  10   5   5  10
                       9   9   9   5   9   9   5   5   9
                       8   8   8   4   8   8   4   4   8
                       8   8   8   4   8   8   4   4   8
 76      1     9       8   8   8   4   8   8   8   8   4
                       3   3   3   2   3   3   3   3   2
                       2   2   2   1   2   2   2   2   1
                       5   5   5   3   5   5   5   5   3
 77      1     9       3   3   3   3   3   3   3   3   2
                       2   2   2   2   2   2   2   2   1
                       7   7   7   7   7   7   7   7   4
                       7   7   7   7   7   7   7   7   4
 78      1     7       7   4   4   7   7   7   7
                       6   3   3   6   6   6   6
                       5   3   3   5   5   5   5
                       1   1   1   1   1   1   1
 79      1     3       5   5   3
                       4   4   2
                       9   9   5
                       5   5   3
 80      1     6       1   2   2   2   2   2
                       4   7   7   7   7   7
                       4   8   8   8   8   8
                       2   3   3   3   3   3
 81      1     9       7   4   7   7   7   7   4   7   7
                       5   3   5   5   5   5   3   5   5
                       3   2   3   3   3   3   2   3   3
                      10   5  10  10  10  10   5  10  10
 82      1     6      10  10   5  10  10  10
                       3   3   2   3   3   3
                       5   5   3   5   5   5
                       1   1   1   1   1   1
 83      1    10       6   6   6   6   6   6   6   3   6   6
                       5   5   5   5   5   5   5   3   5   5
                       3   3   3   3   3   3   3   2   3   3
                       3   3   3   3   3   3   3   2   3   3
 84      1     1       1
                       2
                       1
                       1
 85      1    10       2   2   2   2   2   2   2   2   2   2
                       1   1   1   1   1   1   1   1   1   1
                       7   7   7   7   7   7   7   7   7   7
                       8   8   8   8   8   8   8   8   8   8
 86      1     2      10  10
                       9   9
                       2   2
                      10  10
 87      1     7       9   9   9   9   9   9   9
                       7   7   7   7   7   7   7
                       4   4   4   4   4   4   4
                       5   5   5   5   5   5   5
 88      1     1       1
                       2
                       5
                       3
 89      1     9       8   8   4   4   8   8   8   8   8
                       9   9   5   5   9   9   9   9   9
                       8   8   4   4   8   8   8   8   8
                       7   7   4   4   7   7   7   7   7
 90      1     9       4   8   4   4   8   8   8   4   8
                       2   3   2   2   3   3   3   2   3
                       4   8   4   4   8   8   8   4   8
                       4   8   4   4   8   8   8   4   8
 91      1     9       8   8   8   4   8   8   8   8   8
                       1   1   1   1   1   1   1   1   1
                       2   2   2   1   2   2   2   2   2
                       9   9   9   5   9   9   9   9   9
 92      1     7       8   8   4   8   8   8   8
                       2   2   1   2   2   2   2
                       1   1   1   1   1   1   1
                       1   1   1   1   1   1   1
 93      1     8       3   2   3   3   2   2   3   3
                       1   1   1   1   1   1   1   1
                       8   4   8   8   4   4   8   8
                      10   5  10  10   5   5  10  10
 94      1     5       6   6   6   6   6
                       8   8   8   8   8
                       5   5   5   5   5
                       4   4   4   4   4
 95      1     5       4   4   2   4   4
                       1   1   1   1   1
                       6   6   3   6   6
                       2   2   1   2   2
 96      1     3       2   4   4
                       5   9   9
                       5  10  10
                       3   5   5
 97      1    10       4   4   4   4   4   4   4   4   4   4
                       5   5   5   5   5   5   5   5   5   5
                       5   5   5   5   5   5   5   5   5   5
                       2   2   2   2   2   2   2   2   2   2
 98      1     9       7   7   7   7   7   7   7   7   7
                       1   1   1   1   1   1   1   1   1
                       1   1   1   1   1   1   1   1   1
                       5   5   5   5   5   5   5   5   5
 99      1     1       4
                       9
                       6
                       3
100      1     2       1   1
                       5  10
                       1   2
                       1   1
101      1     1       9
                       5
                      10
                       9
102      1    10       2   2   2   2   2   2   1   2   2   1
                       3   3   3   3   3   3   2   3   3   2
                       5   5   5   5   5   5   3   5   5   3
                       6   6   6   6   6   6   3   6   6   3
103      1    10       3   5   5   5   5   3   5   3   5   3
                       5  10  10  10  10   5  10   5  10   5
                       5  10  10  10  10   5  10   5  10   5
                       5   9   9   9   9   5   9   5   9   5
104      1     3       5   5   5
                       4   4   4
                       1   1   1
                       7   7   7
105      1     5       1   1   1   1   1
                       2   3   3   3   3
                       4   7   7   7   7
                       1   1   1   1   1
106      1     3       5   5   5
                       2   2   2
                       5   5   5
                       7   7   7
107      1     6       1   1   1   1   1   1
                       5   5  10  10  10   5
                       1   1   2   2   2   1
                       3   3   6   6   6   3
108      1    10       7   4   4   7   4   7   7   4   7   7
                       8   4   4   8   4   8   8   4   8   8
                       1   1   1   1   1   1   1   1   1   1
                       2   1   1   2   1   2   2   1   2   2
109      1     2       5   5
                       5   5
                       1   1
                       1   1
110      1     9       9   9   9   5   9   9   9   5   9
                      10  10  10   5  10  10  10   5  10
                       6   6   6   3   6   6   6   3   6
                       6   6   6   3   6   6   6   3   6
111      1     8       3   3   3   3   3   3   3   2
                       4   4   4   4   4   4   4   2
                       8   8   8   8   8   8   8   4
                       4   4   4   4   4   4   4   2
112      1     4       5   5   5   5
                       3   3   3   3
                       6   6   6   6
                       3   3   3   3
113      1     5       5  10   5  10  10
                       3   6   3   6   6
                       3   6   3   6   6
                       2   3   2   3   3
114      1     4       5   5   5   5
                       5   5   5   5
                       4   4   4   4
                      10  10  10  10
115      1     3      10  10  10
                       6   6   6
                       9   9   9
                      10  10  10
116      1     2       3   5
                       3   5
                       1   2
                       2   3
117      1     5       1   1   1   1   1
                       4   4   4   4   4
                       1   1   1   1   1
                      10  10  10  10  10
118      1     6       5   5   5   5   5   5
                       3   3   3   3   3   3
                       8   8   8   8   8   8
                       4   4   4   4   4   4
119      1     8       8   4   4   8   8   8   8   4
                       8   4   4   8   8   8   8   4
                       5   3   3   5   5   5   5   3
                       3   2   2   3   3   3   3   2
120      1     7       5   5   9   9   9   9   9
                       3   3   6   6   6   6   6
                       3   3   6   6   6   6   6
                       5   5  10  10  10  10  10
121      1     2       4   2
                      10   5
                       4   2
                       7   4
122      1     0    
************************************************************************
RESOURCEAVAILABILITIES:
  R 1  R 2  R 3  R 4

  20  20  20  20  20  10  20  20  20  20  20  20  20  20  20  10  20  20  20  20  10  20  20  20  20  20  20  20  20  20  20  10  20  20  20  10  20  20  20  10  10  20  10  20  10  20  20  10  10  20  20  20  10  20  10  20  20  20  20  20  20  20  10  20  20  20  20  10  20  20  20  20  10  20  20  20  20  20  20  20  20  20  20  20  20  10  20  20  20  10  20  20  10  20  10  10  20  20  20  10  20  20  20  20  10  20  20  20  20  20  20  20  20  20  20  20  20  20  10  20  20  10  10  20  20  10  20  20  20  20  10  20  20  20  20  20  20  20  20  20  20  20  20  10  20  20  20  20  20  20  20  20  10  20  20  20  20  20  20  10  20  20  20  20  20  20  20  20  20  20  20  20  20  20  10  20  10  10  20  20  20  20  20  20  20  20  20  20  20  20  20  10  20  20  20  10  20  20  10  20  20  20  10  20  20  20  10  20  20  10  10  10  20  20  20  20  20  20  20  20  20  10  20  20  10  20  20  20  20  10  20  10  20  20  10  20  20  20  20  20  20  20  20  20  20  20  20  20  20  10  20  20  20  20  20  20  20  20  20  20  10  20  20  20  10  20  10  20  20  10  20  10  20  20  20  20  10  20  20  20  20  20  20  10  20  20  20  20  20  20  20  20  10  20  10  20  10  20  10  20  20  20  10  20  20  20  20  20  20  20  20  20  20  10  20  20  20  20  20  20  20  20  20  20  20  20  10  20  20  20  10  20  20  20  20  20  20  20  20  20  20  20  10  10  10  20  10  10  20  20  20  20  20  20  20  20  20  20  20  10  10  20  20  10  20  10  20  20  10  20  10  10  20  20  20  10  10  20  10  20  20  10  20  10  20  20  20  20  20  20  20  20  20  20  20  20  10  20  10  10  20  10  10  20  20  20  20  20  20  20  20  20  20  20  20  20  20  20  20  20  20  20  20  20  20  20  20  10  20  20  20  10  20  20  20  10  20  20  20  10  20  10  10  20  20  20  20  20  20  20  20  20  20  20  20  20  20  20  20  20  20  20  20  20  20  20  20  10  10  20  20  20  20  20  20  20  20  20  20  20  20  20  20  20  20  20  20  20  20  20  20  20  20  10  10  20  20  10  20  10  20  20  10  20  20  20  10  20  10  10  20  10  20  10  20  20  20  20  20  20  20  10  20  20  20  10  20  20  20  20  20  20  20  20  20  10  10  20  20  20  10  10  20  20  20  20  20  20  20  10  20  20  10  20  20  20  10  10  20  10  20  20  20  20  20  20  20  20  20  10  20  20  20  20  20  10  20  20  20  10  20  20  20  20  20  20  10  20  20  20  20  20  20  20  20  20  20  20  20  20  20  10  20  10  20  20  20  20  20  10  20  10  20  20  10  20  20  20  20  20  20  20  20  20  20  10  20  20  20  20  20  20  20  20  10  20  20  20  10  20  20  20  20  20  20  20  20  10  20  20  10  20  20  20  20  20  10  20  10  10  20  20  20  20  20  20  10  20  20  20  20  20  20  20  20  20  20  20  10  20  20  20  20  20  20  10  10  20

  18  18  18  18  18   9  18  18  18  18  18  18  18  18  18   9  18  18  18  18   9  18  18  18  18  18  18  18  18  18  18   9  18  18  18   9  18  18  18   9   9  18   9  18   9  18  18   9   9  18  18  18   9  18   9  18  18  18  18  18  18  18   9  18  18  18  18   9  18  18  18  18   9  18  18  18  18  18  18  18  18  18  18  18  18   9  18  18  18   9  18  18   9  18   9   9  18  18  18   9  18  18  18  18   9  18  18  18  18  18  18  18  18  18  18  18  18  18   9  18  18   9   9  18  18   9  18  18  18  18   9  18  18  18  18  18  18  18  18  18  18  18  18   9  18  18  18  18  18  18  18  18   9  18  18  18  18  18  18   9  18  18  18  18  18  18  18  18  18  18  18  18  18  18   9  18   9   9  18  18  18  18  18  18  18  18  18  18  18  18  18   9  18  18  18   9  18  18   9  18  18  18   9  18  18  18   9  18  18   9   9   9  18  18  18  18  18  18  18  18  18   9  18  18   9  18  18  18  18   9  18   9  18  18   9  18  18  18  18  18  18  18  18  18  18  18  18  18  18   9  18  18  18  18  18  18  18  18  18  18   9  18  18  18   9  18   9  18  18   9  18   9  18  18  18  18   9  18  18  18  18  18  18   9  18  18  18  18  18  18  18  18   9  18   9  18   9  18   9  18  18  18   9  18  18  18  18  18  18  18  18  18  18   9  18  18  18  18  18  18  18  18  18  18  18  18   9  18  18  18   9  18  18  18  18  18  18  18  18  18  18  18   9   9   9  18   9   9  18  18  18  18  18  18  18  18  18  18  18   9   9  18  18   9  18   9  18  18   9  18   9   9  18  18  18   9   9  18   9  18  18   9  18   9  18  18  18  18  18  18  18  18  18  18  18  18   9  18   9   9  18   9   9  18  18  18  18  18  18  18  18  18  18  18  18  18  18  18  18  18  18  18  18  18  18  18  18   9  18  18  18   9  18  18  18   9  18  18  18   9  18   9   9  18  18  18  18  18  18  18  18  18  18  18  18  18  18  18  18  18  18  18  18  18  18  18  18   9   9  18  18  18  18  18  18  18  18  18  18  18  18  18  18  18  18  18  18  18  18  18  18  18  18   9   9  18  18   9  18   9  18  18   9  18  18  18   9  18   9   9  18   9  18   9  18  18  18  18  18  18  18   9  18  18  18   9  18  18  18  18  18  18  18  18  18   9   9  18  18  18   9   9  18  18  18  18  18  18  18   9  18  18   9  18  18  18   9   9  18   9  18  18  18  18  18  18  18  18  18   9  18  18  18  18  18   9  18  18  18   9  18  18  18  18  18  18   9  18  18  18  18  18  18  18  18  18  18  18  18  18  18   9  18   9  18  18  18  18  18   9  18   9  18  18   9  18  18  18  18  18  18  18  18  18  18   9  18  18  18  18  18  18  18  18   9  18  18  18   9  18  18  18  18  18  18  18  18   9  18  18   9  18  18  18  18  18   9  18   9   9  18  18  18  18  18  18   9  18  18  18  18  18  18  18  18  18  18  18   9  18  18  18  18  18  18   9   9  18

  20  20  20  20  20  10  20  20  20  20  20  20  20  20  20  10  20  20  20  20  10  20  20  20  20  20  20  20  20  20  20  10  20  20  20  10  20  20  20  10  10  20  10  20  10  20  20  10  10  20  20  20  10  20  10  20  20  20  20  20  20  20  10  20  20  20  20  10  20  20  20  20  10  20  20  20  20  20  20  20  20  20  20  20  20  10  20  20  20  10  20  20  10  20  10  10  20  20  20  10  20  20  20  20  10  20  20  20  20  20  20  20  20  20  20  20  20  20  10  20  20  10  10  20  20  10  20  20  20  20  10  20  20  20  20  20  20  20  20  20  20  20  20  10  20  20  20  20  20  20  20  20  10  20  20  20  20  20  20  10  20  20  20  20  20  20  20  20  20  20  20  20  20  20  10  20  10  10  20  20  20  20  20  20  20  20  20  20  20  20  20  10  20  20  20  10  20  20  10  20  20  20  10  20  20  20  10  20  20  10  10  10  20  20  20  20  20  20  20  20  20  10  20  20  10  20  20  20  20  10  20  10  20  20  10  20  20  20  20  20  20  20  20  20  20  20  20  20  20  10  20  20  20  20  20  20  20  20  20  20  10  20  20  20  10  20  10  20  20  10  20  10  20  20  20  20  10  20  20  20  20  20  20  10  20  20  20  20  20  20  20  20  10  20  10  20  10  20  10  20  20  20  10  20  20  20  20  20  20  20  20  20  20  10  20  20  20  20  20  20  20  20  20  20  20  20  10  20  20  20  10  20  20  20  20  20  20  20  20  20  20  20  10  10  10  20  10  10  20  20  20  20  20  20  20  20  20  20  20  10  10  20  20  10  20  10  20  20  10  20  10  10  20  20  20  10  10  20  10  20  20  10  20  10  20  20  20  20  20  20  20  20  20  20  20  20  10  20  10  10  20  10  10  20  20  20  20  20  20  20  20  20  20  20  20  20  20  20  20  20  20  20  20  20  20  20  20  10  20  20  20  10  20  20  20  10  20  20  20  10  20  10  10  20  20  20  20  20  20  20  20  20  20  20  20  20  20  20  20  20  20  20  20  20  20  20  20  10  10  20  20  20  20  20  20  20  20  20  20  20  20  20  20  20  20  20  20  20  20  20  20  20  20  10  10  20  20  10  20  10  20  20  10  20  20  20  10  20  10  10  20  10  20  10  20  20  20  20  20  20  20  10  20  20  20  10  20  20  20  20  20  20  20  20  20  10  10  20  20  20  10  10  20  20  20  20  20  20  20  10  20  20  10  20  20  20  10  10  20  10  20  20  20  20  20  20  20  20  20  10  20  20  20  20  20  10  20  20  20  10  20  20  20  20  20  20  10  20  20  20  20  20  20  20  20  20  20  20  20  20  20  10  20  10  20  20  20  20  20  10  20  10  20  20  10  20  20  20  20  20  20  20  20  20  20  10  20  20  20  20  20  20  20  20  10  20  20  20  10  20  20  20  20  20  20  20  20  10  20  20  10  20  20  20  20  20  10  20  10  10  20  20  20  20  20  20  10  20  20  20  20  20  20  20  20  20  20  20  10  20  20  20  20  20  20  10  10  20

  21  21  21  21  21  11  21  21  21  21  21  21  21  21  21  11  21  21  21  21  11  21  21  21  21  21  21  21  21  21  21  11  21  21  21  11  21  21  21  11  11  21  11  21  11  21  21  11  11  21  21  21  11  21  11  21  21  21  21  21  21  21  11  21  21  21  21  11  21  21  21  21  11  21  21  21  21  21  21  21  21  21  21  21  21  11  21  21  21  11  21  21  11  21  11  11  21  21  21  11  21  21  21  21  11  21  21  21  21  21  21  21  21  21  21  21  21  21  11  21  21  11  11  21  21  11  21  21  21  21  11  21  21  21  21  21  21  21  21  21  21  21  21  11  21  21  21  21  21  21  21  21  11  21  21  21  21  21  21  11  21  21  21  21  21  21  21  21  21  21  21  21  21  21  11  21  11  11  21  21  21  21  21  21  21  21  21  21  21  21  21  11  21  21  21  11  21  21  11  21  21  21  11  21  21  21  11  21  21  11  11  11  21  21  21  21  21  21  21  21  21  11  21  21  11  21  21  21  21  11  21  11  21  21  11  21  21  21  21  21  21  21  21  21  21  21  21  21  21  11  21  21  21  21  21  21  21  21  21  21  11  21  21  21  11  21  11  21  21  11  21  11  21  21  21  21  11  21  21  21  21  21  21  11  21  21  21  21  21  21  21  21  11  21  11  21  11  21  11  21  21  21  11  21  21  21  21  21  21  21  21  21  21  11  21  21  21  21  21  21  21  21  21  21  21  21  11  21  21  21  11  21  21  21  21  21  21  21  21  21  21  21  11  11  11  21  11  11  21  21  21  21  21  21  21  21  21  21  21  11  11  21  21  11  21  11  21  21  11  21  11  11  21  21  21  11  11  21  11  21  21  11  21  11  21  21  21  21  21  21  21  21  21  21  21  21  11  21  11  11  21  11  11  21  21  21  21  21  21  21  21  21  21  21  21  21  21  21  21  21  21  21  21  21  21  21  21  11  21  21  21  11  21  21  21  11  21  21  21  11  21  11  11  21  21  21  21  21  21  21  21  21  21  21  21  21  21  21  21  21  21  21  21  21  21  21  21  11  11  21  21  21  21  21  21  21  21  21  21  21  21  21  21  21  21  21  21  21  21  21  21  21  21  11  11  21  21  11  21  11  21  21  11  21  21  21  11  21  11  11  21  11  21  11  21  21  21  21  21  21  21  11  21  21  21  11  21  21  21  21  21  21  21  21  21  11  11  21  21  21  11  11  21  21  21  21  21  21  21  11  21  21  11  21  21  21  11  11  21  11  21  21  21  21  21  21  21  21  21  11  21  21  21  21  21  11  21  21  21  11  21  21  21  21  21  21  11  21  21  21  21  21  21  21  21  21  21  21  21  21  21  11  21  11  21  21  21  21  21  11  21  11  21  21  11  21  21  21  21  21  21  21  21  21  21  11  21  21  21  21  21  21  21  21  11  21  21  21  11  21  21  21  21  21  21  21  21  11  21  21  11  21  21  21  21  21  11  21  11  11  21  21  21  21  21  21  11  21  21  21  21  21  21  21  21  21  21  21  11  21  21  21  21  21  21  11  11  21

************************************************************************
